TCS_Benchmarks/redos_fix/snort1_output_distinct_3095_3094_142_0.smt2
(set-logic QF_S)
(declare-const x String)
(assert (str.in.re x (re.inter (re.* (re.union (re.range "\u{09}" "\u{0d}") (re.range "\u{20}" "\u{20}") (re.range "\u{85}" "\u{85}") (re.range "\u{a0}" "\u{a0}")) )  (re.++ (re.* (re.union (re.range "\u{09}" "\u{0d}") (re.range "\u{20}" "\u{20}") (re.range "\u{85}" "\u{85}") (re.range "\u{a0}" "\u{a0}")) ) (re.++ (re.* (re.comp  (re.union  (str.to_re "\u{0A}") (re.union  (str.to_re "\u{0D}")  (str.to.re "\u{26}")))) ) (re.+ (re.comp (re.range "\u{30}" "\u{39}")) ))) (re.+ (re.comp (re.range "\u{30}" "\u{39}")) ) )))
(check-sat)
(get-model)