TCS_Benchmarks/redos_fix/snort1_output_distinct_3095_3094_142_0.txt
\s*
(\s*)([^\n\r&]*)([^\d]+)
[^\d]+